10
8
  4  48
 66  24
 57  61
 53  10
 16  83
 69  99
 17  88
 69  63
 79  81
 61  98
 89 100
 19  32
 97  97
 39  19
  8  89
 96  35
 63  53
 82  27
 91  71
 88  28
 89  99
  6  83
 79  11
 90   6
 10  41
 75  75
 62  72
 64  73
 37   1
 76  24
 29  82
 21  30
 60  82
 56  78
 13  74
